100
1000
165
165
164
164
161
161
156
155
155
154
154
154
154
151
151
150
149
149
148
146
144
142
142
141
139
139
138
136
136
135
134
133
132
132
131
131
131
131
130
130
129
129
124
124
123
120
118
118
118
117
116
116
116
116
114
114
107
106
105
105
104
102
101
101
98
97
96
96
94
91
91
91
88
86
86
86
84
79
79
78
78
77
76
74
71
71
70
69
67
65
65
64
60
60
59
59
59
59
59
59
